language ESSENCE' 1.0
letting initGrid be [
    [1, 1, 1, 1, 1, 1, 1],
[2, 2, 2, 3, 4, 1, 5],
[2, 5, 4, 2, 6, 3, 6],
[6, 2, 4, 2, 1, 5, 3],
[4, 1, 3, 5, 1, 1, 6],
[3, 4, 3, 5, 6, 2, 1],
[6, 1, 3, 6, 5, 6, 5]
    ]
letting goalBlocksRemaining be 24
letting noSteps be 10
